345 5
10 10 10 10 10 

0 0 0 0 0 0 5 2 14 26 38 50 
0 0 0 0 0 0 4 3 5 6 12 
6 0 4 0 0 0 2 4 194 
8 0 8 0 0 0 2 10 7 
9 0 9 0 0 0 2 10 7 
5 0 9 0 0 0 3 11 10 9 
7 0 7 0 0 0 1 8 
6 0 10 0 0 0 1 9 
8 0 4 0 0 0 1 13 
8 0 10 0 0 0 1 13 
8 0 7 0 0 0 1 13 
6 0 7 0 0 0 1 13 
0 0 0 0 0 0 1 62 
0 0 0 0 0 0 3 15 20 24 
6 0 0 1 0 0 3 23 17 16 
2 0 0 5 0 0 2 22 19 
8 0 0 10 0 0 1 18 
7 0 0 10 0 0 1 19 
4 0 0 10 0 0 2 21 117 
5 0 0 9 0 0 1 21 
9 0 0 9 0 0 1 25 
3 0 0 8 0 0 1 25 
10 0 0 5 0 0 1 25 
5 0 0 8 0 0 1 25 
0 0 0 0 0 0 1 62 
0 0 0 0 0 0 1 27 
10 0 0 2 0 0 4 31 29 28 149 
6 0 0 6 0 0 3 36 33 32 
8 0 0 7 0 0 1 30 
5 0 0 9 0 0 3 36 35 33 
3 0 0 10 0 0 3 36 35 33 
6 0 0 10 0 0 2 35 34 
4 0 0 5 0 0 1 34 
3 0 0 10 0 0 1 37 
2 0 0 6 0 0 1 37 
1 0 0 10 0 0 1 37 
0 0 0 0 0 0 1 62 
0 0 0 0 0 0 2 39 41 
7 0 4 0 0 0 3 43 42 40 
9 0 5 0 0 0 2 45 44 
4 0 9 0 0 0 2 45 44 
5 0 3 0 0 0 3 46 45 275 
4 0 10 0 0 0 2 46 45 
1 0 9 0 0 0 2 48 46 
3 0 6 0 0 0 2 48 47 
8 0 10 0 0 0 1 47 
4 0 9 0 0 0 1 49 
6 0 10 0 0 0 1 49 
0 0 0 0 0 0 1 62 
0 0 0 0 0 0 4 51 52 59 60 
5 0 0 0 0 1 2 58 53 
7 0 0 0 0 8 2 57 54 
6 0 0 0 0 10 1 54 
5 0 0 0 0 7 1 55 
4 0 0 0 0 5 1 56 
6 0 0 0 0 10 1 61 
2 0 0 0 0 10 2 61 249 
1 0 0 0 0 9 1 61 
3 0 0 0 0 9 1 61 
4 0 0 0 0 6 1 61 
0 0 0 0 0 0 1 62 
0 0 0 0 0 0 5 63 75 87 99 111 
0 0 0 0 0 0 2 64 66 
9 0 1 0 0 0 2 65 235 
8 0 10 0 0 0 2 69 67 
1 0 5 0 0 0 3 73 69 68 
8 0 10 0 0 0 2 72 68 
4 0 10 0 0 0 1 70 
9 0 8 0 0 0 1 71 
9 0 9 0 0 0 1 74 
2 0 7 0 0 0 1 74 
6 0 6 0 0 0 1 74 
2 0 9 0 0 0 1 74 
0 0 0 0 0 0 1 123 
0 0 0 0 0 0 2 76 77 
3 1 0 0 0 0 2 85 78 
7 9 0 0 0 0 2 85 79 
8 10 0 0 0 0 1 79 
7 10 0 0 0 0 4 84 83 82 80 
1 8 0 0 0 0 1 81 
8 9 0 0 0 0 1 86 
6 6 0 0 0 0 1 86 
10 10 0 0 0 0 1 86 
5 5 0 0 0 0 1 86 
8 7 0 0 0 0 1 86 
0 0 0 0 0 0 1 123 
0 0 0 0 0 0 3 88 91 92 
8 0 0 0 4 0 2 90 89 
4 0 0 0 6 0 2 94 93 
6 0 0 0 7 0 1 93 
1 0 0 0 9 0 1 93 
1 0 0 0 10 0 1 93 
7 0 0 0 10 0 2 97 95 
9 0 0 0 7 0 2 97 95 
5 0 0 0 7 0 1 96 
5 0 0 0 8 0 1 98 
5 0 0 0 7 0 1 98 
0 0 0 0 0 0 1 123 
0 0 0 0 0 0 4 100 103 105 109 
8 0 8 0 0 0 1 101 
9 0 6 0 0 0 2 108 102 
2 0 4 0 0 0 2 107 104 
6 0 6 0 0 0 2 107 106 
9 0 7 0 0 0 1 106 
10 0 6 0 0 0 1 106 
6 0 10 0 0 0 1 110 
7 0 10 0 0 0 1 110 
9 0 8 0 0 0 1 110 
9 0 10 0 0 0 1 110 
0 0 0 0 0 0 1 123 
0 0 0 0 0 0 2 112 113 
6 0 0 0 4 0 3 118 115 114 
5 0 0 0 5 0 3 121 116 115 
2 0 0 0 7 0 3 121 120 116 
7 0 0 0 7 0 2 120 119 
10 0 0 0 10 0 1 117 
5 0 0 0 8 0 1 119 
4 0 0 0 10 0 1 120 
3 0 0 0 9 0 1 122 
5 0 0 0 7 0 1 122 
3 0 0 0 8 0 1 122 
0 0 0 0 0 0 1 123 
0 0 0 0 0 0 5 124 136 148 160 172 
0 0 0 0 0 0 2 125 129 
2 0 0 0 0 3 2 127 126 
5 0 0 0 0 8 3 133 131 130 
5 0 0 0 0 10 1 128 
10 0 0 0 0 9 3 134 133 131 
10 0 0 0 0 9 2 133 131 
1 0 0 0 0 5 2 134 132 
3 0 0 0 0 5 1 132 
4 0 0 0 0 10 1 135 
1 0 0 0 0 10 1 135 
6 0 0 0 0 6 1 135 
0 0 0 0 0 0 1 184 
0 0 0 0 0 0 4 137 139 141 146 
5 0 0 0 3 0 2 145 138 
3 0 0 0 8 0 2 144 140 
5 0 0 0 8 0 2 145 144 
1 0 0 0 10 0 1 142 
4 0 0 0 10 0 1 142 
5 0 0 0 7 0 1 143 
2 0 0 0 10 0 1 147 
6 0 0 0 5 0 1 147 
8 0 0 0 9 0 1 147 
5 0 0 0 5 0 1 147 
0 0 0 0 0 0 1 184 
0 0 0 0 0 0 1 149 
7 0 0 0 5 0 3 153 152 150 
4 0 0 0 8 0 1 151 
5 0 0 0 9 0 3 156 155 154 
2 0 0 0 10 0 3 156 155 154 
1 0 0 0 6 0 2 156 154 
6 0 0 0 8 0 2 158 157 
1 0 0 0 8 0 2 158 157 
5 0 0 0 7 0 1 157 
1 0 0 0 8 0 1 159 
9 0 0 0 6 0 1 159 
0 0 0 0 0 0 1 184 
0 0 0 0 0 0 3 161 165 170 
9 4 0 0 0 0 1 162 
5 6 0 0 0 0 3 168 167 163 
8 10 0 0 0 0 1 164 
2 3 0 0 0 0 1 166 
4 7 0 0 0 0 1 169 
8 9 0 0 0 0 1 171 
5 7 0 0 0 0 1 171 
8 10 0 0 0 0 1 171 
3 10 0 0 0 0 1 171 
2 9 0 0 0 0 1 171 
0 0 0 0 0 0 1 184 
0 0 0 0 0 0 4 173 177 181 182 
5 0 0 0 0 5 3 180 179 174 
9 0 0 0 0 4 1 175 
5 0 0 0 0 7 1 176 
5 0 0 0 0 10 1 178 
7 0 0 0 0 6 1 178 
8 0 0 0 0 10 1 183 
2 0 0 0 0 7 1 183 
9 0 0 0 0 10 1 183 
8 0 0 0 0 6 1 183 
2 0 0 0 0 10 1 183 
0 0 0 0 0 0 1 184 
0 0 0 0 0 0 5 185 197 219 241 263 
0 0 0 0 0 0 4 186 188 190 195 
2 0 0 0 6 0 1 187 
4 0 0 0 4 0 2 193 189 
7 0 0 0 10 0 3 194 193 192 
10 0 0 0 10 0 1 191 
6 0 0 0 7 0 1 191 
2 0 0 0 10 0 1 192 
8 0 0 0 4 0 1 196 
5 0 0 0 8 0 1 196 
9 0 0 0 8 0 1 196 
4 0 0 0 8 0 1 196 
0 0 0 0 0 0 5 285 297 309 321 333 
0 0 0 0 0 0 2 198 199 
6 0 3 0 4 0 2 202 201 
3 0 7 0 7 0 2 204 200 
2 0 5 0 10 0 1 201 
4 0 9 0 8 0 3 210 207 203 
8 0 9 0 5 0 2 205 204 
10 0 10 0 10 0 2 209 205 
5 0 7 0 6 0 2 210 207 
10 0 9 0 10 0 1 206 
6 0 3 0 5 0 2 211 208 
9 0 7 0 9 0 2 211 208 
3 0 5 0 10 0 3 214 213 212 
6 0 10 0 2 0 3 217 213 212 
7 0 9 0 10 0 1 212 
10 0 10 0 9 0 2 217 216 
7 0 9 0 6 0 1 215 
3 0 7 0 9 0 1 215 
6 0 8 0 4 0 1 215 
3 0 6 0 10 0 1 216 
7 0 9 0 10 0 1 218 
6 0 8 0 6 0 1 218 
0 0 0 0 0 0 1 345 
0 0 0 0 0 0 1 220 
5 0 1 0 4 0 2 223 221 
4 0 10 0 10 0 1 222 
5 0 3 0 8 0 1 224 
4 0 9 0 7 0 1 224 
1 0 6 0 6 0 2 226 225 
10 0 9 0 5 0 3 235 231 227 
8 0 5 0 10 0 4 232 231 230 229 
2 0 9 0 9 0 3 232 229 228 
1 0 7 0 7 0 2 239 230 
2 0 6 0 8 0 4 239 238 237 236 
1 0 10 0 10 0 3 238 237 233 
10 0 7 0 9 0 2 238 236 
7 0 10 0 7 0 1 234 
2 0 4 0 6 0 1 236 
2 0 9 0 10 0 1 236 
1 0 10 0 6 0 1 237 
4 0 6 0 7 0 1 240 
2 0 9 0 8 0 1 240 
4 0 10 0 7 0 1 240 
4 0 10 0 6 0 1 240 
0 0 0 0 0 0 1 345 
0 0 0 0 0 0 2 242 244 
2 3 0 6 0 0 2 246 243 
7 10 0 7 0 0 1 245 
5 10 0 7 0 0 1 245 
2 10 0 8 0 0 1 247 
2 8 0 8 0 0 1 247 
5 10 0 8 0 0 3 254 249 248 
1 9 0 7 0 0 3 253 252 251 
6 7 0 8 0 0 2 252 250 
8 5 0 7 0 0 3 261 260 255 
7 8 0 5 0 0 3 261 260 255 
3 5 0 5 0 0 2 260 255 
10 10 0 10 0 0 2 260 255 
6 6 0 8 0 0 2 260 255 
8 9 0 7 0 0 1 256 
10 10 0 7 0 0 2 259 257 
5 7 0 10 0 0 1 258 
10 7 0 10 0 0 1 262 
4 6 0 8 0 0 1 262 
4 5 0 7 0 0 1 262 
4 5 0 7 0 0 1 262 
0 0 0 0 0 0 1 345 
0 0 0 0 0 0 2 264 266 
5 0 2 0 0 10 2 269 265 
1 0 10 0 0 9 1 267 
2 0 6 0 0 5 1 267 
6 0 8 0 0 10 2 270 268 
7 0 7 0 0 6 3 275 273 271 
10 0 7 0 0 10 4 276 274 273 272 
2 0 7 0 0 3 3 276 275 274 
2 0 10 0 0 7 2 276 272 
7 0 10 0 0 8 3 283 281 277 
4 0 9 0 0 5 3 282 281 277 
1 0 10 0 0 8 3 283 281 278 
6 0 9 0 0 5 2 281 277 
7 0 2 0 0 7 3 282 281 280 
5 0 7 0 0 9 1 278 
7 0 5 0 0 3 1 279 
7 0 7 0 0 7 1 280 
4 0 10 0 0 10 1 284 
9 0 6 0 0 8 1 284 
7 0 10 0 0 10 1 284 
3 0 8 0 0 10 1 284 
0 0 0 0 0 0 1 345 
0 0 0 0 0 0 3 286 287 288 
5 0 2 0 0 0 2 290 289 
6 0 8 0 0 0 2 290 289 
8 0 8 0 0 0 2 290 289 
10 0 8 0 0 0 3 294 292 291 
5 0 10 0 0 0 1 291 
2 0 8 0 0 0 1 293 
4 0 7 0 0 0 1 293 
2 0 10 0 0 0 1 295 
10 0 6 0 0 0 1 295 
7 0 8 0 0 0 1 296 
0 0 0 0 0 0 1 345 
0 0 0 0 0 0 1 298 
5 0 0 8 0 0 2 300 299 
9 0 0 4 0 0 2 302 301 
4 0 0 3 0 0 2 302 301 
2 0 0 10 0 0 2 304 303 
5 0 0 8 0 0 2 304 303 
4 0 0 3 0 0 3 307 306 305 
3 0 0 9 0 0 3 307 306 305 
7 0 0 10 0 0 1 308 
7 0 0 10 0 0 1 308 
8 0 0 10 0 0 1 308 
0 0 0 0 0 0 1 345 
0 0 0 0 0 0 2 310 312 
1 0 0 2 0 0 1 311 
1 0 0 6 0 0 2 319 313 
10 0 0 5 0 0 3 318 315 314 
6 0 0 9 0 0 3 318 316 314 
7 0 0 8 0 0 1 317 
5 0 0 10 0 0 1 316 
1 0 0 9 0 0 1 320 
1 0 0 10 0 0 1 320 
5 0 0 6 0 0 1 320 
6 0 0 10 0 0 1 320 
0 0 0 0 0 0 1 345 
0 0 0 0 0 0 6 322 325 327 329 330 331 
5 0 0 7 0 0 1 323 
6 0 0 5 0 0 1 324 
7 0 0 7 0 0 1 326 
9 0 0 9 0 0 1 326 
10 0 0 9 0 0 1 328 
2 0 0 4 0 0 1 328 
10 0 0 10 0 0 1 332 
10 0 0 5 0 0 1 332 
3 0 0 10 0 0 1 332 
1 0 0 9 0 0 1 332 
0 0 0 0 0 0 1 345 
0 0 0 0 0 0 1 334 
5 0 0 2 0 0 3 337 336 335 
9 0 0 9 0 0 2 339 338 
3 0 0 9 0 0 2 339 338 
4 0 0 7 0 0 1 338 
10 0 0 7 0 0 2 341 340 
5 0 0 8 0 0 2 341 340 
3 0 0 10 0 0 2 343 342 
10 0 0 7 0 0 2 343 342 
8 0 0 8 0 0 1 344 
9 0 0 8 0 0 1 344 
0 0 0 0 0 0 1 345 
0 0 0 0 0 0 0 
